\* Problem: Unknown *\

Maximize
 obj: + xp_0_0 + xp_0_1 + xp_0_2 + xp_0_3 + xp_0_4 + xp_0_5 + xp_1_0
 + xp_1_1 + xp_1_2 + xp_2_0 + xp_2_1 + xp_2_2 + xp_2_3 + xp_2_4 + xp_3_0
 + xp_3_1 + xp_4_0 + xp_5_0 + xp_5_1 + xp_6_0 + xp_6_1 + xp_6_2 + xp_7_0
 + xp_7_1 + xp_8_0 + xp_8_1 + xp_9_0 + xp_10_0 + xp_11_0 + xp_11_1
 + xp_11_2 + xp_11_3 + xp_12_0 + xp_13_0 + xp_13_1 + xp_14_0 + xp_14_1
 + xp_15_0 + xp_16_0 + xp_16_1 + xp_17_0 + xp_17_1 + xp_17_2 + xp_17_3
 + xp_17_4 + xp_18_0 + xp_18_1 + xp_18_2 + xp_18_3 + xp_18_4 + xp_19_0
 + xp_19_1 + xp_19_2 + xp_19_3 + xp_19_4 + xp_20_0 + xp_20_1 + xp_20_2
 + xp_20_3 + xp_21_0 + xp_21_1 + xp_21_2 + xp_21_3 + xp_21_4 + xp_22_0
 + xp_22_1 + xp_22_2 + xp_22_3 + xp_22_4 + xp_22_5 + xp_23_0 + xp_23_1
 + xp_23_2

Subject To
 r_1: 0 xp_0_0 <= 26.0949464012251
 r_2: + xp_22_3 + xp_18_4 + xp_18_3 + xp_5_1 + xp_2_2
 <= 26.0136785539814
 r_3: + xp_23_2 + xp_21_2 + xp_18_2 + xp_6_2 <= 26.3893805309735
 r_4: + xp_17_1 + xp_15_0 <= 27.6367006487488
 r_5: + xp_18_0 <= 25.6427184466019
 r_6: + xp_18_1 <= 26.9620253164557
 r_7: + xp_20_3 <= 26.0949464012251
 r_8: + xp_22_2 + xp_11_2 + xp_2_4 <= 26.0136785539814
 r_9: + xp_11_1 + xp_6_1 + xp_3_1 <= 26.3893805309735
 r_10: + xp_3_0 <= 27.6367006487488
 r_11: + xp_18_1 + xp_11_3 <= 25.6427184466019
 r_12: + xp_11_0 <= 26.9620253164557
 r_13: 0 xp_0_0 <= 27.6367006487488
 r_14: + xp_21_4 + xp_21_1 + xp_14_0 + xp_0_2 <= 26.0136785539814
 r_15: + xp_21_0 + xp_19_1 <= 26.3893805309735
 r_16: + xp_22_1 + xp_0_5 + xp_0_3 + xp_0_1 <= 26.9620253164557
 r_17: + xp_0_0 <= 25.6427184466019
 r_18: + xp_21_2 + xp_4_0 <= 26.0949464012251
 r_19: + xp_19_0 <= 26.0949464012251
 r_20: + xp_21_3 + xp_19_4 + xp_19_3 + xp_19_2 + xp_14_1 + xp_0_4
 <= 27.6367006487488
 r_21: + xp_20_1 <= 26.0136785539814
 r_22: + xp_21_1 + xp_7_1 <= 26.3893805309735
 r_23: + xp_22_4 + xp_22_3 + xp_22_2 + xp_17_4 <= 26.9620253164557
 r_24: + xp_21_4 + xp_18_4 <= 26.5090230242688
 r_25: 0 xp_0_0 <= 27.6367006487488
 r_26: + xp_18_3 + xp_0_4 + xp_0_2 <= 25.6427184466019
 r_27: + xp_11_2 <= 26.0136785539814
 r_28: + xp_19_3 <= 26.0136785539814
 r_29: + xp_20_2 <= 26.3893805309735
 r_30: + xp_2_0 <= 26.3893805309735
 r_31: + xp_23_2 + xp_18_2 + xp_6_2 + xp_6_1 + xp_3_1 + xp_2_3
 <= 26.5090230242688
 r_32: + xp_2_1 <= 27.6367006487488
 r_33: + xp_11_1 + xp_2_2 <= 26.3893805309735
 r_34: + xp_19_4 + xp_19_1 + xp_2_4 <= 26.3893805309735
 r_35: 0 xp_0_0 <= 26.9620253164557
 r_36: + xp_9_0 <= 26.9620253164557
 r_37: + xp_13_1 + xp_8_1 + xp_0_3 <= 26.5090230242688
 r_38: + xp_1_1 <= 29.2984869325997
 r_39: + xp_17_4 + xp_17_2 + xp_0_5 <= 27.6367006487488
 r_40: + xp_0_1 <= 25.6427184466019
 r_41: + xp_12_0 + xp_2_3 <= 26.5090230242688
 r_42: + xp_21_4 <= 26.5090230242688
 r_43: + xp_16_0 <= 26.5090230242688
 r_44: + xp_23_2 + xp_23_1 + xp_16_1 + xp_1_2 <= 29.2984869325997
 r_45: + xp_17_3 + xp_3_1 <= 27.6367006487488
 r_46: + xp_18_4 + xp_18_2 + xp_0_3 <= 25.6427184466019
 r_47: + xp_22_5 + xp_16_1 + xp_13_1 <= 29.2984869325997
 r_48: + xp_13_0 <= 29.2984869325997
 r_49: 0 xp_0_0 <= 27.6367006487488
 r_50: 0 xp_0_0 <= 25.6427184466019
 r_51: + xp_8_1 + xp_1_1 <= 27.6367006487488
 r_52: + xp_8_0 + xp_1_2 <= 27.6367006487488
 r_53: + xp_1_0 <= 27.6367006487488
 r_54: + xp_0_5 <= 25.6427184466019
 r_55: 0 xp_0_0 <= 27.6367006487488
 r_56: 0 xp_0_0 <= 27.6367006487488
 r_57: + xp_22_1 <= 25.6427184466019
 r_58: + xp_22_4 + xp_17_4 + xp_5_0 <= 25.6427184466019
 r_59: + xp_22_0 + xp_17_2 <= 25.6427184466019
 r_60: + xp_23_1 + xp_17_3 + xp_6_0 <= 25.6427184466019
 r_61: + xp_23_0 + xp_22_5 <= 25.6427184466019
 r_62: + xp_17_0 <= 25.6427184466019
 r_63: + xp_23_2 + xp_22_3 + xp_17_1 + xp_11_3 + xp_6_2 + xp_5_1
 <= 25.6427184466019
 r_64: + xp_22_2 + xp_6_1 <= 25.6427184466019
 r_65: + xp_20_1 + xp_19_3 + xp_14_1 + xp_7_1 + xp_2_1 + xp_0_4
 <= 27.6367006487488
 r_66: + xp_21_3 + xp_20_2 + xp_19_4 + xp_7_0 <= 27.6367006487488
 r_67: + xp_20_3 + xp_19_2 + xp_10_0 <= 27.6367006487488
 r_68: + xp_20_0 <= 27.6367006487488

Bounds
 0 <= xp_0_0 <= 30
 0 <= xp_0_1 <= 12.8571428571429
 0 <= xp_0_2 <= 4.28571428571428
 0 <= xp_0_3 <= 4.28571428571428
 0 <= xp_0_4 <= 4.28571428571428
 0 <= xp_0_5 <= 4.28571428571428
 0 <= xp_1_0 <= 18.8687035714286
 0 <= xp_1_1 <= 14.5829892857143
 0 <= xp_1_2 <= 0.575282142857143
 0 <= xp_2_0 <= 21.9360257142857
 0 <= xp_2_1 <= 1.52236285714286
 0 <= xp_2_2 <= 8.57142857142857
 0 <= xp_2_3 <= 1.01490857142857
 0 <= xp_2_4 <= 0.507454285714286
 0 <= xp_3_0 <= 25.7142857142857
 0 <= xp_3_1 <= 4.28571428571428
 0 <= xp_4_0 <= 25.3224
 0 <= xp_5_0 <= 21.7049142857143
 0 <= xp_5_1 <= 3.61748571428571
 0 <= xp_6_0 <= 13.0229485714286
 0 <= xp_6_1 <= 6.51147428571428
 0 <= xp_6_2 <= 3.25573714285714
 0 <= xp_7_0 <= 18.7204885714286
 0 <= xp_7_1 <= 3.12008142857143
 0 <= xp_8_0 <= 16.8213085714286
 0 <= xp_8_1 <= 2.80355142857143
 0 <= xp_9_0 <= 18.200475
 0 <= xp_10_0 <= 18.200475
 0 <= xp_11_0 <= 25.0309885714286
 0 <= xp_11_1 <= 8.57142857142857
 0 <= xp_11_2 <= 16.1179114285714
 0 <= xp_11_3 <= 7.88813142857143
 0 <= xp_12_0 <= 17.09262
 0 <= xp_13_0 <= 14.24385
 0 <= xp_13_1 <= 2.373975
 0 <= xp_14_0 <= 13.5655714285714
 0 <= xp_14_1 <= 2.26092857142857
 0 <= xp_15_0 <= 15.668235
 0 <= xp_16_0 <= 12.8872928571429
 0 <= xp_16_1 <= 2.14788214285714
 0 <= xp_17_0 <= 27.7139528571428
 0 <= xp_17_1 <= 3.99933428571428
 0 <= xp_17_2 <= 5.99900142857143
 0 <= xp_17_3 <= 4.28571428571428
 0 <= xp_17_4 <= 1.99966714285714
 0 <= xp_18_0 <= 22.3279242857143
 0 <= xp_18_1 <= 12.02814
 0 <= xp_18_2 <= 1.72835571428571
 0 <= xp_18_3 <= 4.28571428571428
 0 <= xp_18_4 <= 1.72835571428571
 0 <= xp_19_0 <= 29.0353414285714
 0 <= xp_19_1 <= 3.32105571428571
 0 <= xp_19_2 <= 1.66052785714286
 0 <= xp_19_3 <= 5.94624214285714
 0 <= xp_19_4 <= 1.66052785714286
 0 <= xp_20_0 <= 28.8092485714286
 0 <= xp_20_1 <= 7.38067714285714
 0 <= xp_20_2 <= 1.54748142857143
 0 <= xp_20_3 <= 3.09496285714286
 0 <= xp_21_0 <= 24.02613
 0 <= xp_21_1 <= 6.88327285714285
 0 <= xp_21_2 <= 1.29877928571429
 0 <= xp_21_3 <= 2.59755857142857
 0 <= xp_21_4 <= 4.28571428571428
 0 <= xp_22_0 <= 20.3609164285714
 0 <= xp_22_1 <= 5.35840071428571
 0 <= xp_22_2 <= 8.57142857142857
 0 <= xp_22_3 <= 1.07268642857143
 0 <= xp_22_4 <= 1.07268642857143
 0 <= xp_22_5 <= 1.07268642857143
 0 <= xp_23_0 <= 25.7193171428571
 0 <= xp_23_1 <= 10.7168014285714
 0 <= xp_23_2 <= 1.07268642857143

End
